NAME : input200_5.txt .out.tour
COMMENT : Tour for input200_5.txt .tsp (Length 2782.97)
TYPE : TOUR
DIMENSION : 200
TOUR_SECTION
1
13
141
9
67
17
173
33
43
5
95
182
145
136
126
146
147
153
114
156
194
139
193
198
28
131
21
170
30
127
181
105
129
39
62
86
94
12
123
45
186
118
135
140
29
11
166
25
164
101
163
128
104
102
148
134
50
108
73
169
160
10
130
133
38
79
88
132
56
51
196
124
19
187
142
2
6
77
92
111
40
87
98
112
66
44
178
199
176
68
167
100
116
159
122
144
185
63
96
24
76
138
14
106
84
59
53
110
15
41
32
35
42
16
48
72
168
46
172
82
177
125
89
165
80
151
158
58
154
49
149
189
171
174
113
93
31
57
8
91
23
109
120
155
20
97
117
197
152
184
55
71
195
83
69
34
180
107
90
200
161
3
47
52
81
54
191
22
192
78
119
150
103
37
65
99
26
115
175
157
75
190
64
7
18
137
121
183
70
36
27
61
60
188
162
179
85
143
4
74
1
